% File represents an instance of a Composite Structure problem to be solved by a CP framework
% Created on 2025-03-25 14:06:10.314
T = 36;
n = 4;
m = 4;
edges = [(2, 1),
(3, 4),
(3, 1),
(2, 4)];
counts = [|4, 4, 14, 6,
|8, 8, 14, 6,
|4, 4, 14, 8,
|4, 4, 12, 6|];
